k = 56;
b = 28;
AtomicConstraints =  [|
1, 2|
	1, 4|
	1, 31|
	1, 33|
	2, 31|
	2, 33|
	3, 2|
	3, 4|
	3, 6|
	3, 31|
	3, 33|
	4, 31|
	4, 33|
	5, 2|
	5, 4|
	5, 6|
	5, 31|
	5, 33|
	6, 31|
	6, 33|
	8, 9|
	8, 10|
	8, 12|
	8, 24|
	8, 30|
	8, 27|
	9, 10|
	9, 27|
	11, 8|
	11, 9|
	11, 10|
	11, 12|
	11, 24|
	11, 30|
	11, 27|
	12, 10|
	13, 9|
	13, 10|
	13, 12|
	13, 34|
	13, 16|
	13, 29|
	13, 27|
	7, 14|
	7, 20|
	7, 24|
	7, 26|
	7, 30|
	7, 27|
	15, 10|
	15, 12|
	15, 34|
	15, 16|
	15, 29|
	15, 18|
	15, 32|
	16, 34|
	16, 29|
	16, 32|
	17, 34|
	17, 16|
	17, 29|
	17, 18|
	17, 32|
	17, 21|
	17, 22|
	17, 23|
	18, 29|
	18, 32|
	18, 22|
	18, 23|
	32, 23|
	14, 20|
	14, 24|
	14, 30|
	14, 27|
	19, 29|
	19, 18|
	19, 32|
	19, 21|
	19, 22|
	19, 23|
	21, 32|
	21, 22|
	21, 23|
	22, 23|
	20, 24|
	20, 27|
	25, 8|
	25, 9|
	25, 10|
	25, 14|
	25, 20|
	25, 24|
	25, 26|
	25, 30|
	25, 27|
	26, 9|
	26, 10|
	26, 20|
	26, 24|
	26, 30|
	26, 27|
	30, 10|
	30, 24|
	30, 27|
	28, 8|
	28, 9|
	28, 10|
	28, 12|
	28, 20|
	28, 24|
	28, 26|
	28, 30|
	28, 27|
	33, 31|
	47, 35|
	47, 53|
	47, 56|
	47, 42|
	47, 54|
	47, 36|
	47, 48|
	47, 37|
	47, 40|
	47, 52|
	47, 55|
	47, 38|
	49, 35|
	49, 53|
	49, 42|
	49, 54|
	49, 36|
	49, 48|
	49, 37|
	49, 52|
	49, 55|
	49, 38|
	45, 48|
	45, 37|
	45, 40|
	43, 48|
	43, 37|
	43, 40|
	35, 48|
	35, 52|
	35, 55|
	35, 38|
	53, 48|
	53, 37|
	53, 52|
	53, 55|
	53, 38|
	56, 48|
	56, 37|
	56, 40|
	56, 52|
	56, 55|
	56, 38|
	42, 52|
	54, 52|
	54, 55|
	36, 52|
	36, 55|
	36, 38|
	46, 1|
	46, 2|
	46, 31|
	46, 33|
	44, 1|
	44, 2|
	44, 3|
	44, 4|
	44, 31|
	44, 33|
	51, 1|
	51, 2|
	51, 31|
	51, 33|
	51, 46|
	51, 44|
	50, 1|
	50, 2|
	50, 3|
	50, 4|
	50, 31|
	50, 33|
	50, 46|
	50, 44|
	41, 1|
	41, 2|
	41, 31|
	41, 33|
	41, 46|
	41, 44|
	41, 51|
	41, 50|
	39, 1|
	39, 2|
	39, 3|
	39, 4|
	39, 31|
	39, 33|
	39, 46|
	39, 44|
	39, 51|
	39, 50|];
DisjunctiveConstraints =  [|3, 5, 3, 1|
	4, 6, 4, 2|
	9, 12, 9, 30|
	11, 13, 11, 28|
	12, 34, 12, 9|
	13, 15, 13, 11|
	34, 29, 34, 12|
	15, 17, 15, 13|
	29, 32, 29, 34|
	17, 19, 17, 15|
	18, 21, 18, 16|
	32, 22, 32, 29|
	25, 28, 25, 7|
	26, 8, 26, 14|
	30, 9, 30, 20|
	27, 10, 27, 24|
	28, 11, 28, 25|
	47, 56, 28, 47|
	47, 37, 47, 9|
	49, 53, 25, 49|
	49, 48, 49, 20|
	49, 40, 12, 49|
	35, 48, 35, 20|
	53, 56, 53, 35|
	53, 37, 53, 9|
	56, 40, 56, 12|
	54, 36, 54, 42|
	37, 40, 37, 48|
	55, 38, 55, 52|
	46, 3, 31, 46|
	44, 5, 33, 44|
	44, 31, 44, 3|
	50, 31, 50, 3|
	39, 31, 39, 3|];
SoftAtomicConstraints =  [|
3, 1|
4, 2|
5, 3|
6, 4|
25, 7|
16, 8|
12, 9|
23, 10|
13, 11|
34, 12|
15, 13|
26, 14|
17, 15|
18, 16|
19, 17|
21, 18|
30, 20|
27, 24|
28, 25|
8, 26|
10, 27|
11, 28|
32, 29|
9, 30|
14, 31|
22, 32|
29, 34|
53, 35|
35, 36|
40, 37|
48, 38|
39, 41|
54, 42|
45, 43|
44, 46|
37, 48|
47, 49|
50, 51|
55, 52|
56, 53|
36, 54|
38, 55|
43, 56|];
DirectSuccessors =  [];
